NAME : C104.3580.tour
COMMENT : Cost = 0_3580
COMMENT : Found by LKH [Keld Helsgaun] Sat Apr 22 13:38:55 2017
TYPE : TOUR
DIMENSION : 55
TOUR_SECTION
1
44
43
42
41
45
46
47
49
51
50
48
55
8
9
12
10
7
5
3
2
4
6
52
35
37
40
39
38
36
32
34
33
53
14
18
19
20
16
17
15
13
11
54
21
25
26
28
30
31
29
27
24
23
22
-1
EOF
